
Gurobi 9.0.1 (linux64) logging started Thu Apr 30 17:00:51 2020

Gurobi Optimizer version 9.0.1 build v9.0.1rc0 (linux64)
Optimize a model with 11327 rows, 12060 columns and 198990 nonzeros
Model fingerprint: 0xe233057a
Variable types: 0 continuous, 12060 integer (12032 binary)
Coefficient statistics:
  Matrix range     [1e+00, 1e+01]
  Objective range  [5e+00, 1e+02]
  Bounds range     [1e+00, 1e+00]
  RHS range        [1e+00, 1e+00]

User MIP start produced solution with objective 916 (0.26s)
Loaded user MIP start with objective 916

Presolve removed 928 rows and 1887 columns
Presolve time: 2.90s
Presolved: 10399 rows, 10173 columns, 162246 nonzeros
Variable types: 0 continuous, 10173 integer (10147 binary)

Root simplex log...

Iteration    Objective       Primal Inf.    Dual Inf.      Time
    3130    4.6745849e+02   6.400545e+02   0.000000e+00      5s
    5990    4.8309709e+02   7.439950e+02   0.000000e+00     10s
    8395    4.8956009e+02   1.220682e+04   0.000000e+00     15s
   10552    4.9039153e+02   2.742516e+02   0.000000e+00     20s
   12239    4.9107933e+02   1.607247e+03   0.000000e+00     26s
   13440    4.9134648e+02   6.070636e+02   0.000000e+00     30s
   14862    4.9160527e+02   3.216124e+02   0.000000e+00     35s
   16140    4.9185556e+02   2.894189e+03   0.000000e+00     40s
   17662    4.9204247e+02   5.571815e+02   0.000000e+00     45s
   18719    4.9208135e+02   0.000000e+00   0.000000e+00     49s

Root relaxation: objective 4.920814e+02, 18719 iterations, 45.77 seconds
Total elapsed time = 50.15s

    Nodes    |    Current Node    |     Objective Bounds      |     Work
 Expl Unexpl |  Obj  Depth IntInf | Incumbent    BestBd   Gap | It/Node Time

     0     0  492.08135    0 3712  916.00000  492.08135  46.3%     -   52s
     0     0  506.47730    0 3676  916.00000  506.47730  44.7%     -  149s
     0     0  509.96177    0 3642  916.00000  509.96177  44.3%     -  191s
     0     0  510.23270    0 3647  916.00000  510.23270  44.3%     -  210s
     0     0  510.23756    0 3640  916.00000  510.23756  44.3%     -  213s
     0     0  510.23799    0 3639  916.00000  510.23799  44.3%     -  214s
     0     0  521.22159    0 3663  916.00000  521.22159  43.1%     -  375s
     0     0  522.26915    0 3604  916.00000  522.26915  43.0%     -  428s
     0     0  522.30889    0 3605  916.00000  522.30889  43.0%     -  443s
     0     0  522.31065    0 3591  916.00000  522.31065  43.0%     -  447s
     0     0  528.47608    0 3606  916.00000  528.47608  42.3%     -  791s
     0     0  530.04351    0 3609  916.00000  530.04351  42.1%     -  917s
     0     0  530.41183    0 3599  916.00000  530.41183  42.1%     -  994s
     0     0  530.47400    0 3629  916.00000  530.47400  42.1%     - 1016s
     0     0  530.48512    0 3620  916.00000  530.48512  42.1%     - 1028s
     0     0  533.46437    0 3649  916.00000  533.46437  41.8%     - 1415s
     0     0  534.05811    0 3692  916.00000  534.05811  41.7%     - 1498s
     0     0  534.20361    0 3688  916.00000  534.20361  41.7%     - 1529s
     0     0  534.22822    0 3699  916.00000  534.22822  41.7%     - 1542s
     0     0  534.23296    0 3697  916.00000  534.23296  41.7%     - 1550s
     0     0  535.74668    0 3671  916.00000  535.74668  41.5%     - 1705s
     0     0  535.91288    0 3667  916.00000  535.91288  41.5%     - 1753s
     0     0  535.95549    0 3684  916.00000  535.95549  41.5%     - 1776s
     0     0  535.96065    0 3678  916.00000  535.96065  41.5%     - 1782s
     0     0  537.33488    0 3736  916.00000  537.33488  41.3%     - 1905s
     0     0  537.47494    0 3761  916.00000  537.47494  41.3%     - 1947s
     0     0  537.50690    0 3766  916.00000  537.50690  41.3%     - 1964s
     0     0  537.51622    0 3752  916.00000  537.51622  41.3%     - 1971s
     0     0  538.22188    0 3728  916.00000  538.22188  41.2%     - 2079s
     0     0  538.29077    0 3742  916.00000  538.29077  41.2%     - 2101s
     0     0  538.31148    0 3750  916.00000  538.31148  41.2%     - 2111s
     0     0  540.01122    0 3717  916.00000  540.01122  41.0%     - 2258s
     0     0  540.17308    0 3722  916.00000  540.17308  41.0%     - 2307s
     0     0  540.19381    0 3755  916.00000  540.19381  41.0%     - 2320s
     0     0  540.70972    0 3763  916.00000  540.70972  41.0%     - 2398s
     0     0  540.81364    0 3755  916.00000  540.81364  41.0%     - 2429s
     0     0  540.83557    0 3759  916.00000  540.83557  41.0%     - 2442s
     0     0  541.38594    0 3754  916.00000  541.38594  40.9%     - 2533s
     0     0  541.57454    0 3753  916.00000  541.57454  40.9%     - 2586s
     0     0  541.61038    0 3751  916.00000  541.61038  40.9%     - 2603s
     0     0  541.62176    0 3753  916.00000  541.62176  40.9%     - 2611s
     0     0  541.95327    0 3779  916.00000  541.95327  40.8%     - 2669s
     0     0  542.01488    0 3782  916.00000  542.01488  40.8%     - 2694s
     0     0  542.02678    0 3774  916.00000  542.02678  40.8%     - 2703s
     0     0  542.63776    0 3777  916.00000  542.63776  40.8%     - 2772s
     0     0  542.75078    0 3770  916.00000  542.75078  40.7%     - 2801s
     0     0  542.77038    0 3786  916.00000  542.77038  40.7%     - 2812s
     0     0  543.23636    0 3782  916.00000  543.23636  40.7%     - 2871s
     0     0  543.28847    0 3782  916.00000  543.28847  40.7%     - 2894s
     0     0  543.30838    0 3772  916.00000  543.30838  40.7%     - 2904s
     0     0  543.58047    0 3772  916.00000  543.58047  40.7%     - 2946s
     0     0  543.63744    0 3799  916.00000  543.63744  40.7%     - 2968s
     0     0  543.65417    0 3790  916.00000  543.65417  40.6%     - 2980s
     0     0  543.78603    0 3786  916.00000  543.78603  40.6%     - 3012s
     0     0  543.78603    0 3784  916.00000  543.78603  40.6%     - 3029s
     0     2  543.78825    0 3782  916.00000  543.78825  40.6%     - 3161s
     1     3  547.20847    1 3594  916.00000  543.78825  40.6% 47827 3503s

Cutting planes:
  MIR: 78
  StrongCG: 4
  Zero half: 63
  Mod-K: 1
  RLT: 2425

Explored 2 nodes (475663 simplex iterations) in 3600.01 seconds
Thread count was 1 (of 40 available processors)

Solution count 1: 916 

Time limit reached
Best objective 9.160000000000e+02, best bound 5.440000000000e+02, gap 40.6114%

User-callback calls 7222, time in user-callback 0.01 sec
